# Objective value = 33
WA1n 0
WA1p 0
WA2n 1
WA2p 0
WB1n 0
WB1p 0
WB2n 0
WB2p 1
WC1n 1
WC1p 0
WD1n 0
WD1p 1
WE1n 0
WE1p 2
WE2n 0
WE2p 1
WF1n 0
WF1p 2
WF2n 0
WF2p 1
WG1n 6
WG1p 0
WH1n 6
WH1p 0
WI1n 6
WI1p 0
WT1n 0
WT1p 1
5 7
a 0
b 0
c 0
d 1
e 0
f 1
g 1
h 1
i 1
j 1
k 0
l 0
m 0
n 1
